3 5
94 156 110 
0 39 29 57 47 76 66 41 18 1 12 87 95 3
1 49 39 26 16 102 92 21 82 61 52 93 94 1
2 39 29 82 72 16 6 37 20 87 41 28 93 1
3 94 84 110 100 19 9 74 96 79 70 3 22 3
4 17 7 88 78 58 48 49 92 94 8 91 30 2
